c nIsolatedPIs 0
c maxPI 16
p cnf 93 232
c gate 17 -8 16 0
-8 -17 0
16 -17 0
8 -16 17 0
c gate 18 8 -16 0
8 -18 0
-16 -18 0
-8 16 18 0
c gate 19 -17 -18 0
-17 -19 0
-18 -19 0
17 18 19 0
c gate 20 7 -15 0
7 -20 0
-15 -20 0
-7 15 20 0
c gate 21 -7 15 0
-7 -21 0
15 -21 0
7 -15 21 0
c gate 22 -20 -21 0
-20 -22 0
-21 -22 0
20 21 22 0
c gate 23 6 -14 0
6 -23 0
-14 -23 0
-6 14 23 0
c gate 24 5 -13 0
5 -24 0
-13 -24 0
-5 13 24 0
c gate 25 -23 -24 0
-23 -25 0
-24 -25 0
23 24 25 0
c gate 26 -5 13 0
-5 -26 0
13 -26 0
5 -13 26 0
c gate 27 -1 9 0
-1 -27 0
9 -27 0
1 -9 27 0
c gate 28 1 -9 0
1 -28 0
-9 -28 0
-1 9 28 0
c gate 29 2 -10 0
2 -29 0
-10 -29 0
-2 10 29 0
c gate 30 -2 10 0
-2 -30 0
10 -30 0
2 -10 30 0
c gate 31 -29 -30 0
-29 -31 0
-30 -31 0
29 30 31 0
c gate 32 -28 31 0
-28 -32 0
31 -32 0
28 -31 32 0
c gate 33 -27 32 0
-27 -33 0
32 -33 0
27 -32 33 0
c gate 34 4 -12 0
4 -34 0
-12 -34 0
-4 12 34 0
c gate 35 -4 12 0
-4 -35 0
12 -35 0
4 -12 35 0
c gate 36 -34 -35 0
-34 -36 0
-35 -36 0
34 35 36 0
c gate 37 -3 11 0
-3 -37 0
11 -37 0
3 -11 37 0
c gate 38 3 -11 0
3 -38 0
-11 -38 0
-3 11 38 0
c gate 39 -37 -38 0
-37 -39 0
-38 -39 0
37 38 39 0
c gate 40 36 39 0
36 -40 0
39 -40 0
-36 -39 40 0
c gate 41 33 40 0
33 -41 0
40 -41 0
-33 -40 41 0
c gate 42 -30 -32 0
-30 -42 0
-32 -42 0
30 32 42 0
c gate 43 -38 -42 0
-38 -43 0
-42 -43 0
38 42 43 0
c gate 44 -37 -43 0
-37 -44 0
-43 -44 0
37 43 44 0
c gate 45 -34 -44 0
-34 -45 0
-44 -45 0
34 44 45 0
c gate 46 -35 -45 0
-35 -46 0
-45 -46 0
35 45 46 0
c gate 47 -41 -46 0
-41 -47 0
-46 -47 0
41 46 47 0
c gate 48 -26 -47 0
-26 -48 0
-47 -48 0
26 47 48 0
c gate 49 25 -48 0
25 -49 0
-48 -49 0
-25 48 49 0
c gate 50 -6 14 0
-6 -50 0
14 -50 0
6 -14 50 0
c gate 51 19 25 0
19 -51 0
25 -51 0
-19 -25 51 0
c gate 52 -26 -50 0
-26 -52 0
-50 -52 0
26 50 52 0
c gate 53 22 52 0
22 -53 0
52 -53 0
-22 -52 53 0
c gate 54 51 53 0
51 -54 0
53 -54 0
-51 -53 54 0
c gate 55 41 54 0
41 -55 0
54 -55 0
-41 -54 55 0
c gate 56 -25 -50 0
-25 -56 0
-50 -56 0
25 50 56 0
c gate 57 -20 -56 0
-20 -57 0
-56 -57 0
20 56 57 0
c gate 58 -21 -57 0
-21 -58 0
-57 -58 0
21 57 58 0
c gate 59 -18 -58 0
-18 -59 0
-58 -59 0
18 58 59 0
c gate 60 -17 -59 0
-17 -60 0
-59 -60 0
17 59 60 0
c gate 61 46 54 0
46 -61 0
54 -61 0
-46 -54 61 0
c gate 62 -60 -61 0
-60 -62 0
-61 -62 0
60 61 62 0
c gate 63 -55 -62 0
-55 -63 0
-62 -63 0
55 62 63 0
c gate 64 -50 63 0
-50 -64 0
63 -64 0
50 -63 64 0
c gate 65 -49 64 0
-49 -65 0
64 -65 0
49 -64 65 0
c gate 66 -24 -46 0
-24 -66 0
-46 -66 0
24 46 66 0
c gate 67 52 -66 0
52 -67 0
-66 -67 0
-52 66 67 0
c gate 68 -23 -67 0
-23 -68 0
-67 -68 0
23 67 68 0
c gate 69 -63 68 0
-63 -69 0
68 -69 0
63 -68 69 0
c gate 70 -65 -69 0
-65 -70 0
-69 -70 0
65 69 70 0
c gate 71 22 -70 0
22 -71 0
-70 -71 0
-22 70 71 0
c gate 72 20 63 0
20 -72 0
63 -72 0
-20 -63 72 0
c gate 73 21 -63 0
21 -73 0
-63 -73 0
-21 63 73 0
c gate 74 -72 -73 0
-72 -74 0
-73 -74 0
72 73 74 0
c gate 75 -71 74 0
-71 -75 0
74 -75 0
71 -74 75 0
c gate 76 19 -75 0
19 -76 0
-75 -76 0
-19 75 76 0
c gate 77 -19 75 0
-19 -77 0
75 -77 0
19 -75 77 0
c gate 78 -76 -77 0
-76 -78 0
-77 -78 0
76 77 78 0
c gate 79 -22 70 0
-22 -79 0
70 -79 0
22 -70 79 0
c gate 80 -71 -79 0
-71 -80 0
-79 -80 0
71 79 80 0
c gate 81 -56 60 0
-56 -81 0
60 -81 0
56 -60 81 0
c gate 82 -50 -60 0
-50 -82 0
-60 -82 0
50 60 82 0
c gate 83 46 82 0
46 -83 0
82 -83 0
-46 -82 83 0
c gate 84 -81 -83 0
-81 -84 0
-83 -84 0
81 83 84 0
c gate 85 22 -84 0
22 -85 0
-84 -85 0
-22 84 85 0
c gate 86 -22 84 0
-22 -86 0
84 -86 0
22 -84 86 0
c gate 87 -85 -86 0
-85 -87 0
-86 -87 0
85 86 87 0
c gate 88 80 87 0
80 -88 0
87 -88 0
-80 -87 88 0
c gate 89 17 -20 0
17 -89 0
-20 -89 0
-17 20 89 0
c gate 90 18 58 0
18 -90 0
58 -90 0
-18 -58 90 0
c gate 91 -89 -90 0
-89 -91 0
-90 -91 0
89 90 91 0
c gate 92 -88 -91 0
-88 -92 0
-91 -92 0
88 91 92 0
c gate 93 -78 92 0
-78 -93 0
92 -93 0
78 -92 93 0
c PO
93 0
